<?xml version = "1.0" standalone="yes"?>
<!-- This file has been generated by DOcplex version 2.23.222  -->
<CPLEXSolution version="1.0">
 <header
   problemName="CVRP"
   objectiveValue="8730.31"
  />
 <variables>
  <variable name="x_0_1" index="0" value="1.00000"/>
  <variable name="x_0_3" index="2" value="1.00000"/>
  <variable name="x_0_5" index="4" value="1.00000"/>
  <variable name="x_0_6" index="5" value="1.00000"/>
  <variable name="x_0_7" index="6" value="1.00000"/>
  <variable name="x_0_8" index="7" value="1.00000"/>
  <variable name="x_1_0" index="10" value="1.00000"/>
  <variable name="x_2_0" index="20" value="1.00000"/>
  <variable name="x_3_10" index="39" value="1.00000"/>
  <variable name="x_4_0" index="40" value="1.00000"/>
  <variable name="x_5_9" index="58" value="1.00000"/>
  <variable name="x_6_0" index="60" value="1.00000"/>
  <variable name="x_7_4" index="74" value="1.00000"/>
  <variable name="x_8_0" index="80" value="1.00000"/>
  <variable name="x_9_2" index="92" value="1.00000"/>
  <variable name="x_10_0" index="100" value="1.00000"/>
  <variable name="u_1" index="110" value="34.00000"/>
  <variable name="u_2" index="111" value="25.00000"/>
  <variable name="u_3" index="112" value="11.00000"/>
  <variable name="u_4" index="113" value="31.00000"/>
  <variable name="u_5" index="114" value="2.00000"/>
  <variable name="u_6" index="115" value="17.00000"/>
  <variable name="u_7" index="116" value="12.00000"/>
  <variable name="u_8" index="117" value="28.00000"/>
  <variable name="u_9" index="118" value="19.00000"/>
  <variable name="u_10" index="119" value="34.00000"/>
 </variables>
</CPLEXSolution>
